p cnf 603
-8 -190
-9 -193
-10 -196
-11 -199
-12 -202
-13 -205
-14 -208
-15 209
-16 210
-17 211
-18 212
-19 213
-20 214
-21 215
-22 -9
-22 -10
9 10 22
-23 -11
-23 -12
11 12 23
-24 -13
-24 -14
13 14 24
-25 -15
-25 -16
15 16 25
-26 -17
-26 -18
17 18 26
-27 -19
-27 -20
19 20 27
-28 22
-28 23
-22 -23 28
-29 24
-29 25
-24 -25 29
-30 26
-30 27
-26 -27 30
-31 28
-31 29
-28 -29 31
-32 -21
-32 30
21 -30 32
-33 31
-33 32
-31 -32 33
-34 -8
-34 9
8 -9 34
-35 8
-35 -9
-8 9 35
-36 -34
-36 -35
34 35 36
-37 8
-37 9
-8 -9 37
-38 -8
-38 -36
8 36 38
-39 8
-39 36
-8 -36 39
-40 -38
-40 -39
38 39 40
-41 8
-41 -36
-8 36 41
-42 -37
-42 -41
37 41 42
-43 -9
-43 10
9 -10 43
-44 9
-44 -10
-9 10 44
-45 -43
-45 -44
43 44 45
-46 9
-46 10
-9 -10 46
-47 42
-47 -45
-42 45 47
-48 -42
-48 45
42 -45 48
-49 -47
-49 -48
47 48 49
-50 -42
-50 -45
42 45 50
-51 -46
-51 -50
46 50 51
-52 -10
-52 11
10 -11 52
-53 10
-53 -11
-10 11 53
-54 -52
-54 -53
52 53 54
-55 10
-55 11
-10 -11 55
-56 51
-56 -54
-51 54 56
-57 -51
-57 54
51 -54 57
-58 -56
-58 -57
56 57 58
-59 -51
-59 -54
51 54 59
-60 -55
-60 -59
55 59 60
-61 -11
-61 12
11 -12 61
-62 11
-62 -12
-11 12 62
-63 -61
-63 -62
61 62 63
-64 11
-64 12
-11 -12 64
-65 60
-65 -63
-60 63 65
-66 -60
-66 63
60 -63 66
-67 -65
-67 -66
65 66 67
-68 -60
-68 -63
60 63 68
-69 -64
-69 -68
64 68 69
-70 -12
-70 13
12 -13 70
-71 12
-71 -13
-12 13 71
-72 -70
-72 -71
70 71 72
-73 12
-73 13
-12 -13 73
-74 69
-74 -72
-69 72 74
-75 -69
-75 72
69 -72 75
-76 -74
-76 -75
74 75 76
-77 -69
-77 -72
69 72 77
-78 -73
-78 -77
73 77 78
-79 -13
-79 14
13 -14 79
-80 13
-80 -14
-13 14 80
-81 -79
-81 -80
79 80 81
-82 13
-82 14
-13 -14 82
-83 78
-83 -81
-78 81 83
-84 -78
-84 81
78 -81 84
-85 -83
-85 -84
83 84 85
-86 -78
-86 -81
78 81 86
-87 -82
-87 -86
82 86 87
-88 -14
-88 15
14 -15 88
-89 14
-89 -15
-14 15 89
-90 -88
-90 -89
88 89 90
-91 14
-91 15
-14 -15 91
-92 87
-92 -90
-87 90 92
-93 -87
-93 90
87 -90 93
-94 -92
-94 -93
92 93 94
-95 -87
-95 -90
87 90 95
-96 -91
-96 -95
91 95 96
-97 -15
-97 16
15 -16 97
-98 15
-98 -16
-15 16 98
-99 -97
-99 -98
97 98 99
-100 15
-100 16
-15 -16 100
-101 96
-101 -99
-96 99 101
-102 -96
-102 99
96 -99 102
-103 -101
-103 -102
101 102 103
-104 -96
-104 -99
96 99 104
-105 -100
-105 -104
100 104 105
-106 -16
-106 17
16 -17 106
-107 16
-107 -17
-16 17 107
-108 -106
-108 -107
106 107 108
-109 16
-109 17
-16 -17 109
-110 105
-110 -108
-105 108 110
-111 -105
-111 108
105 -108 111
-112 -110
-112 -111
110 111 112
-113 -105
-113 -108
105 108 113
-114 -109
-114 -113
109 113 114
-115 -17
-115 18
17 -18 115
-116 17
-116 -18
-17 18 116
-117 -115
-117 -116
115 116 117
-118 17
-118 18
-17 -18 118
-119 114
-119 -117
-114 117 119
-120 -114
-120 117
114 -117 120
-121 -119
-121 -120
119 120 121
-122 -114
-122 -117
114 117 122
-123 -118
-123 -122
118 122 123
-124 -18
-124 19
18 -19 124
-125 18
-125 -19
-18 19 125
-126 -124
-126 -125
124 125 126
-127 18
-127 19
-18 -19 127
-128 123
-128 -126
-123 126 128
-129 -123
-129 126
123 -126 129
-130 -128
-130 -129
128 129 130
-131 -123
-131 -126
123 126 131
-132 -127
-132 -131
127 131 132
-133 -19
-133 20
19 -20 133
-134 19
-134 -20
-19 20 134
-135 -133
-135 -134
133 134 135
-136 19
-136 20
-19 -20 136
-137 132
-137 -135
-132 135 137
-138 -132
-138 135
132 -135 138
-139 -137
-139 -138
137 138 139
-140 -132
-140 -135
132 135 140
-141 -136
-141 -140
136 140 141
-142 -20
-142 21
20 -21 142
-143 20
-143 -21
-20 21 143
-144 -142
-144 -143
142 143 144
-145 20
-145 21
-20 -21 145
-146 141
-146 -144
-141 144 146
-147 -141
-147 144
141 -144 147
-148 -146
-148 -147
146 147 148
-149 -141
-149 -144
141 144 149
-150 -145
-150 -149
145 149 150
-151 8
-151 -40
-8 40 151
-152 -8
-152 10
8 -10 152
-153 -151
-153 -152
151 152 153
-154 8
-154 -49
-8 49 154
-155 -8
-155 11
8 -11 155
-156 -154
-156 -155
154 155 156
-157 8
-157 -58
-8 58 157
-158 -8
-158 12
8 -12 158
-159 -157
-159 -158
157 158 159
-160 8
-160 -67
-8 67 160
-161 -8
-161 13
8 -13 161
-162 -160
-162 -161
160 161 162
-163 8
-163 -76
-8 76 163
-164 -8
-164 14
8 -14 164
-165 -163
-165 -164
163 164 165
-166 8
-166 -85
-8 85 166
-167 -8
-167 15
8 -15 167
-168 -166
-168 -167
166 167 168
-169 8
-169 -94
-8 94 169
-170 -8
-170 16
8 -16 170
-171 -169
-171 -170
169 170 171
-172 8
-172 -103
-8 103 172
-173 -8
-173 17
8 -17 173
-174 -172
-174 -173
172 173 174
-175 8
-175 -112
-8 112 175
-176 -8
-176 18
8 -18 176
-177 -175
-177 -176
175 176 177
-178 8
-178 -121
-8 121 178
-179 -8
-179 19
8 -19 179
-180 -178
-180 -179
178 179 180
-181 8
-181 -130
-8 130 181
-182 -8
-182 20
8 -20 182
-183 -181
-183 -182
181 182 183
-184 8
-184 -139
-8 139 184
-185 -8
-185 21
8 -21 185
-186 -184
-186 -185
184 185 186
-187 8
-187 -148
-8 148 187
-188 1
-188 33
-1 -33 188
-189 -33
-189 34
33 -34 189
-190 -188
-190 -189
188 189 190
-191 2
-191 33
-2 -33 191
-192 -33
-192 -153
33 153 192
-193 -191
-193 -192
191 192 193
-194 3
-194 33
-3 -33 194
-195 -33
-195 -156
33 156 195
-196 -194
-196 -195
194 195 196
-197 4
-197 33
-4 -33 197
-198 -33
-198 -159
33 159 198
-199 -197
-199 -198
197 198 199
-200 5
-200 33
-5 -33 200
-201 -33
-201 -162
33 162 201
-202 -200
-202 -201
200 201 202
-203 6
-203 33
-6 -33 203
-204 -33
-204 -165
33 165 204
-205 -203
-205 -204
203 204 205
-206 7
-206 33
-7 -33 206
-207 -33
-207 -168
33 168 207
-208 -206
-208 -207
206 207 208
-209 -33
-209 -171
33 171 209
-210 -33
-210 -174
33 174 210
-211 -33
-211 -177
33 177 211
-212 -33
-212 -180
33 180 212
-213 -33
-213 -183
33 183 213
-214 -33
-214 -186
33 186 214
-215 -33
-215 187
33 -187 215
-216 -21
-216 150
21 -150 216
-217 8
-217 -216
-8 216 217
217
